;; sequence(s): A199300
;; terms: 1 21 245 2401 21609 184877 1529437 12353145 98001617 766718533 5931980229 45478515089 346032180025 2616003280989 19668469112621 147174406808233 1096686708796833 8142067989552245 60251303122686613
;; small program: loop((2 * ((x + x) + x)) + x, x, 1 + (x + x))
;; fast program: loop2(x * y, y, x, 1 + (x + x), 1 + (2 + (2 + 2)))
(set-logic UFNIA)
(declare-fun f0 (Int) Int)
(declare-fun g0 (Int) Int)
(declare-fun h0 (Int) Int)
(declare-fun u0 (Int Int) Int)
(declare-fun v0 (Int) Int)
(declare-fun small (Int) Int)
(declare-fun f1 (Int Int) Int)
(declare-fun g1 (Int Int) Int)
(declare-fun h1 (Int) Int)
(declare-fun i1 (Int) Int)
(declare-fun j1 () Int)
(declare-fun u1 (Int Int Int) Int)
(declare-fun v1 (Int Int Int) Int)
(declare-fun w1 (Int) Int)
(declare-fun fast (Int) Int)
(assert (forall ((x Int)) (= (f0 x) (+ (* 2 (+ (+ x x) x)) x))))
(assert (forall ((x Int)) (= (g0 x) x)))
(assert (forall ((x Int)) (= (h0 x) (+ 1 (+ x x)))))
(assert (forall ((x Int) (y Int)) (= (u0 x y) (ite (<= x 0) y (f0 (u0 (- x 1) y))))))
(assert (forall ((x Int)) (= (v0 x) (u0 (g0 x) (h0 x)))))
(assert (forall ((x Int)) (= (small x) (v0 x))))
(assert (forall ((x Int) (y Int)) (= (f1 x y) (* x y))))
(assert (forall ((x Int) (y Int)) (= (g1 x y) y)))
(assert (forall ((x Int)) (= (h1 x) x)))
(assert (forall ((x Int)) (= (i1 x) (+ 1 (+ x x)))))
(assert (= j1 (+ 1 (+ 2 (+ 2 2)))))
(assert (forall ((x Int) (y Int) (z Int)) (= (u1 x y z) (ite (<= x 0) y (f1 (u1 (- x 1) y z) (v1 (- x 1) y z))))))
(assert (forall ((x Int) (y Int) (z Int)) (= (v1 x y z) (ite (<= x 0) z (g1 (u1 (- x 1) y z) (v1 (- x 1) y z))))))
(assert (forall ((x Int)) (= (w1 x) (u1 (h1 x) (i1 x) j1))))
(assert (forall ((x Int)) (= (fast x) (w1 x))))
(assert (exists ((c Int)) (and (>= c 0) (not (= (small c) (fast c))))))
(check-sat)
